/*********************************************
 * OPL 12.6.0.0 Data
 * Author: Adrian Rodriguez Bazaga, Pau Rodriguez Esmerats
 * Creation Date: 09/12/2017 at 00:43:23
 *********************************************/

maxConsec=13;
maxPresence=13;
maxHours=8;
minHours=5;
hours=20;
demand= [9 13 13 11 12 11 11 14 13 11 10 6 3 2 1 2 1 1 1 0  ];
nNurses=18;
